Route 1: 65 69 88 98 82 90 66 91 96 80
Route 2: 92 95 94 81 61 72 54 68 70 100
Route 3: 85 62 67 84 51 56 93
Route 4: 12 14 47 99 86 57 74 58
Route 5: 71 38 37 41 35 43
Route 6: 2 45 3 1 5 8 7 46 4 60
Route 7: 52 11 73 78 10 13
Route 8: 59 15 16 9 97 17
Route 9: 42 79 6 55
Route 10: 21 48 23 22 19 49 24 20 25
Route 11: 63 33 30 26 28 32 31 34 50
Route 12: 39 36 44 40
Route 13: 87 75 77
Route 14: 83 64 76 18 89
Route 15: 27 29
Route 16: 53
Vehicles: 16
Distance: 2000.89
